<number of tasks>
70

<cycle time>
320

<task times>
1 17
2 66
3 54
4 52
5 6
6 88
7 21
8 128
9 68
10 70
11 85
12 21
13 134
14 135
15 94
16 90
17 50
18 143
19 19
20 54
21 50
22 40
23 73
24 12
25 152
26 42
27 45
28 74
29 26
30 11
31 31
32 50
33 102
34 46
35 35
36 40
37 2
38 1
39 3
40 13
41 16
42 25
43 21
44 43
45 30
46 83
47 89
48 56
49 59
50 43
51 11
52 26
53 44
54 121
55 38
56 68
57 22
58 7
59 16
60 32
61 25
62 27
63 156
64 28
65 15
66 26
67 18
68 72
69 23
70 27

<precedence relations>
1,2
1,41
1,69
1,70
2,3
3,4
3,68
4,6
4,7
5,6
5,24
5,30
6,8
7,8
8,12
9,10
10,11
11,12
12,13
12,14
13,23
14,23
15,16
16,17
16,18
17,19
18,19
19,20
19,22
19,57
20,21
21,23
22,23
23,25
23,31
23,33
24,25
25,26
25,27
25,28
25,29
26,35
27,35
28,35
29,35
30,31
31,32
32,35
33,34
34,35
35,36
35,44
35,48
35,51
35,53
35,56
35,60
35,61
35,62
36,37
37,38
38,39
39,40
40,42
41,42
42,43
43,50
44,45
45,46
46,47
47,50
48,49
49,50
51,52
52,54
53,54
54,55
57,58
58,59
59,60
61,65
62,63
63,64
64,65
64,66
64,67

<setup times forward>
1,9:20
1,10:20
1,11:7
1,16:20
1,17:7
1,18:8
1,19:7
1,20:7
1,21:7
1,22:7
1,30:11
1,57:7
1,58:5
1,59:11
1,69:5
1,70:8
2,9:20
2,10:20
2,11:7
2,16:20
2,17:7
2,18:8
2,19:7
2,20:7
2,21:7
2,22:7
2,30:11
2,57:7
2,58:5
2,59:11
2,69:5
2,70:8
3,9:20
3,10:20
3,11:7
3,16:20
3,17:7
3,18:8
3,19:7
3,20:7
3,21:7
3,22:7
3,30:11
3,57:7
3,58:5
3,59:11
3,68:11
3,69:5
3,70:8
4,6:20
4,7:8
4,9:20
4,10:20
4,11:7
4,16:20
4,17:7
4,18:8
4,19:7
4,20:7
4,21:7
4,22:7
4,30:11
4,57:7
4,58:5
4,59:11
4,68:11
4,69:5
4,70:8
5,6:20
5,7:8
5,9:20
5,10:20
5,11:7
5,16:20
5,17:7
5,18:8
5,19:7
5,20:7
5,21:7
5,22:7
5,30:11
5,57:7
5,58:5
5,59:11
5,68:11
5,69:5
5,70:8
6,7:28
6,8:28
6,11:13
6,15:20
6,17:13
6,18:28
6,19:13
6,20:13
6,21:13
6,22:13
6,24:20
6,30:31
6,41:20
6,57:13
6,58:15
6,59:31
6,68:31
6,69:15
6,70:28
7,5:8
7,6:28
7,9:28
7,10:28
7,11:15
7,15:8
7,16:28
7,17:15
7,19:15
7,20:15
7,21:15
7,22:15
7,24:8
7,30:3
7,41:8
7,57:15
7,58:13
7,59:3
7,68:3
7,69:13
8,9:28
8,10:28
8,11:15
8,12:13
8,15:8
8,16:28
8,17:15
8,19:15
8,20:15
8,21:15
8,22:15
8,24:8
8,30:3
8,41:8
8,57:15
8,58:13
8,59:3
8,68:3
8,69:13
9,1:20
9,2:20
9,3:20
9,4:20
9,5:20
9,7:28
9,8:28
9,15:20
9,17:13
9,18:28
9,19:13
9,20:13
9,21:13
9,22:13
9,24:20
9,30:31
9,41:20
9,57:13
9,58:15
9,59:31
9,68:31
9,69:15
9,70:28
10,1:20
10,2:20
10,3:20
10,4:20
10,5:20
10,7:28
10,8:28
10,11:13
10,15:20
10,17:13
10,18:28
10,19:13
10,20:13
10,21:13
10,22:13
10,24:20
10,30:31
10,41:20
10,57:13
10,58:15
10,59:31
10,68:31
10,69:15
10,70:28
11,1:7
11,2:7
11,3:7
11,4:7
11,5:7
11,6:13
11,7:15
11,8:15
11,12:2
11,15:7
11,16:13
11,18:15
11,24:7
11,30:18
11,41:7
11,58:2
11,59:18
11,68:18
11,69:2
11,70:15
12,15:5
12,16:15
12,17:2
12,18:13
12,19:2
12,20:2
12,21:2
12,22:2
12,24:5
12,30:16
12,41:5
12,57:2
12,59:16
12,68:16
12,70:13
13,15:5
13,16:15
13,17:2
13,18:13
13,19:2
13,20:2
13,21:2
13,22:2
13,23:16
13,24:5
13,30:16
13,41:5
13,57:2
13,59:16
13,68:16
13,70:13
14,15:5
14,16:15
14,17:2
14,18:13
14,19:2
14,20:2
14,21:2
14,22:2
14,23:16
14,24:5
14,30:16
14,41:5
14,57:2
14,59:16
14,68:16
14,70:13
15,6:20
15,7:8
15,8:8
15,9:20
15,10:20
15,11:7
15,12:5
15,13:5
15,14:5
15,16:20
15,30:11
15,68:11
15,69:5
15,70:8
16,1:20
16,2:20
16,3:20
16,4:20
16,5:20
16,7:28
16,8:28
16,11:13
16,12:15
16,13:15
16,14:15
16,17:13
16,18:28
16,24:20
16,30:31
16,41:20
16,68:31
16,69:15
16,70:28
17,1:7
17,2:7
17,3:7
17,4:7
17,5:7
17,6:13
17,7:15
17,8:15
17,9:13
17,10:13
17,12:2
17,13:2
17,14:2
17,18:15
17,24:7
17,30:18
17,41:7
17,68:18
17,69:2
17,70:15
18,1:8
18,2:8
18,3:8
18,4:8
18,5:8
18,6:28
18,9:28
18,10:28
18,11:15
18,12:13
18,13:13
18,14:13
18,17:15
18,19:15
18,24:8
18,30:3
18,41:8
18,68:3
18,69:13
19,1:7
19,2:7
19,3:7
19,4:7
19,5:7
19,6:13
19,7:15
19,8:15
19,9:13
19,10:13
19,12:2
19,13:2
19,14:2
19,24:7
19,30:18
19,41:7
19,68:18
19,69:2
19,70:15
20,1:7
20,2:7
20,3:7
20,4:7
20,5:7
20,6:13
20,7:15
20,8:15
20,9:13
20,10:13
20,12:2
20,13:2
20,14:2
20,24:7
20,30:18
20,41:7
20,58:2
20,59:18
20,68:18
20,69:2
20,70:15
21,1:7
21,2:7
21,3:7
21,4:7
21,5:7
21,6:13
21,7:15
21,8:15
21,9:13
21,10:13
21,12:2
21,13:2
21,14:2
21,23:18
21,24:7
21,30:18
21,41:7
21,58:2
21,59:18
21,68:18
21,69:2
21,70:15
22,1:7
22,2:7
22,3:7
22,4:7
22,5:7
22,6:13
22,7:15
22,8:15
22,9:13
22,10:13
22,12:2
22,13:2
22,14:2
22,23:18
22,24:7
22,30:18
22,41:7
22,58:2
22,59:18
22,68:18
22,69:2
22,70:15
23,24:11
23,25:10
23,31:10
23,41:11
23,57:18
23,58:16
23,69:16
23,70:3
24,6:20
24,7:8
24,8:8
24,9:20
24,10:20
24,11:7
24,12:5
24,13:5
24,14:5
24,16:20
24,17:7
24,18:8
24,19:7
24,20:7
24,21:7
24,22:7
24,23:11
24,25:1
24,30:11
24,31:1
24,32:1
24,33:11
24,34:11
24,57:7
24,58:5
24,59:11
24,68:11
24,69:5
24,70:8
25,28:17
25,29:17
25,30:10
25,33:10
25,34:10
25,41:1
25,57:8
25,58:6
25,59:10
25,68:10
25,69:6
25,70:7
26,28:17
26,29:17
26,30:10
26,33:10
26,34:10
26,35:17
26,41:1
26,57:8
26,58:6
26,59:10
26,68:10
26,69:6
26,70:7
27,28:17
27,29:17
27,30:10
27,33:10
27,34:10
27,35:17
27,41:1
27,57:8
27,58:6
27,59:10
27,68:10
27,69:6
27,70:7
28,26:17
28,27:17
28,30:7
28,31:17
28,32:17
28,33:7
28,34:7
28,41:18
28,57:25
28,58:23
28,59:7
28,68:7
28,69:23
28,70:10
29,26:17
29,27:17
29,30:7
29,31:17
29,32:17
29,33:7
29,34:7
29,41:18
29,57:25
29,58:23
29,59:7
29,68:7
29,69:23
29,70:10
30,1:11
30,2:11
30,3:11
30,4:11
30,6:31
30,7:3
30,8:3
30,9:31
30,10:31
30,11:18
30,12:16
30,13:16
30,14:16
30,15:11
30,16:31
30,17:18
30,18:3
30,19:18
30,20:18
30,21:18
30,22:18
30,24:11
30,25:10
30,26:10
30,27:10
30,28:7
30,29:7
30,31:10
30,41:11
30,57:18
30,58:16
30,69:16
30,70:3
31,24:1
31,28:17
31,29:17
31,33:10
31,34:10
31,41:1
31,57:8
31,58:6
31,59:10
31,68:10
31,69:6
31,70:7
32,24:1
32,28:17
32,29:17
32,33:10
32,34:10
32,35:17
32,41:1
32,57:8
32,58:6
32,59:10
32,68:10
32,69:6
32,70:7
33,24:11
33,25:10
33,26:10
33,27:10
33,28:7
33,29:7
33,31:10
33,32:10
33,41:11
33,57:18
33,58:16
33,69:16
33,70:3
34,24:11
34,25:10
34,26:10
34,27:10
34,28:7
34,29:7
34,31:10
34,32:10
34,35:7
34,41:11
34,57:18
34,58:16
34,69:16
34,70:3
35,36:29
35,41:18
35,48:10
35,51:10
35,53:10
35,56:10
35,57:25
35,58:23
35,59:7
35,60:29
35,61:10
35,68:7
35,69:23
35,70:10
36,41:11
36,44:29
36,45:29
36,46:29
36,48:19
36,49:34
36,51:19
36,52:19
36,53:19
36,54:34
36,55:34
36,56:19
36,57:4
36,58:6
36,59:22
36,61:19
36,62:29
36,64:19
36,65:34
36,66:34
36,67:34
36,68:22
36,69:6
36,70:19
37,41:11
37,44:29
37,45:29
37,46:29
37,48:19
37,49:34
37,51:19
37,52:19
37,53:19
37,54:34
37,55:34
37,56:19
37,57:4
37,58:6
37,59:22
37,61:19
37,62:29
37,64:19
37,65:34
37,66:34
37,67:34
37,68:22
37,69:6
37,70:19
38,39:19
38,41:11
38,44:29
38,45:29
38,46:29
38,48:19
38,49:34
38,51:19
38,52:19
38,53:19
38,54:34
38,55:34
38,56:19
38,57:4
38,58:6
38,59:22
38,61:19
38,62:29
38,64:19
38,65:34
38,66:34
38,67:34
38,68:22
38,69:6
38,70:19
39,41:8
39,44:10
39,45:10
39,46:10
39,47:19
39,49:15
39,54:15
39,55:15
39,57:15
39,58:13
39,59:3
39,60:19
39,62:10
39,63:19
39,65:15
39,66:15
39,67:15
39,68:3
39,69:13
40,41:8
40,44:10
40,45:10
40,46:10
40,47:19
40,49:15
40,54:15
40,55:15
40,57:15
40,58:13
40,59:3
40,60:19
40,62:10
40,63:19
40,65:15
40,66:15
40,67:15
40,68:3
40,69:13
41,6:20
41,7:8
41,8:8
41,9:20
41,10:20
41,11:7
41,12:5
41,13:5
41,14:5
41,16:20
41,17:7
41,18:8
41,19:7
41,20:7
41,21:7
41,22:7
41,23:11
41,25:1
41,26:1
41,27:1
41,28:18
41,29:18
41,30:11
41,31:1
41,32:1
41,33:11
41,34:11
41,35:18
41,36:11
41,37:11
41,38:11
41,39:8
41,40:8
41,42:8
41,44:18
41,45:18
41,46:18
41,47:11
41,48:8
41,49:23
41,51:8
41,52:8
41,53:8
41,54:23
41,55:23
41,56:8
41,57:7
41,58:5
41,59:11
41,60:11
41,61:8
41,62:18
41,63:11
41,64:8
41,65:23
41,66:23
41,67:23
41,68:11
41,69:5
41,70:8
42,44:10
42,45:10
42,46:10
42,47:19
42,49:15
42,54:15
42,55:15
42,57:15
42,58:13
42,59:3
42,60:19
42,62:10
42,63:19
42,65:15
42,66:15
42,67:15
42,68:3
42,69:13
43,44:10
43,45:10
43,46:10
43,47:19
43,49:15
43,50:15
43,54:15
43,55:15
43,57:15
43,58:13
43,59:3
43,60:19
43,62:10
43,63:19
43,65:15
43,66:15
43,67:15
43,68:3
43,69:13
44,36:29
44,37:29
44,38:29
44,39:10
44,40:10
44,41:18
44,42:10
44,43:10
44,48:10
44,49:5
44,51:10
44,52:10
44,53:10
44,54:5
44,55:5
44,56:10
44,57:25
44,58:23
44,59:7
44,60:29
44,61:10
44,63:29
44,64:10
44,65:5
44,66:5
44,67:5
44,68:7
44,69:23
44,70:10
45,36:29
45,37:29
45,38:29
45,39:10
45,40:10
45,41:18
45,42:10
45,43:10
45,48:10
45,49:5
45,51:10
45,52:10
45,53:10
45,54:5
45,55:5
45,56:10
45,57:25
45,58:23
45,59:7
45,60:29
45,61:10
45,63:29
45,64:10
45,65:5
45,66:5
45,67:5
45,68:7
45,69:23
45,70:10
46,36:29
46,37:29
46,38:29
46,39:10
46,40:10
46,41:18
46,42:10
46,43:10
46,47:29
46,48:10
46,49:5
46,51:10
46,52:10
46,53:10
46,54:5
46,55:5
46,56:10
46,57:25
46,58:23
46,59:7
46,60:29
46,61:10
46,63:29
46,64:10
46,65:5
46,66:5
46,67:5
46,68:7
46,69:23
46,70:10
47,39:19
47,40:19
47,41:11
47,42:19
47,43:19
47,48:19
47,49:34
47,50:34
47,51:19
47,52:19
47,53:19
47,54:34
47,55:34
47,56:19
47,57:4
47,58:6
47,59:22
47,61:19
47,62:29
47,64:19
47,65:34
47,66:34
47,67:34
47,68:22
47,69:6
47,70:19
48,36:19
48,37:19
48,38:19
48,41:8
48,44:10
48,45:10
48,46:10
48,47:19
48,49:15
48,54:15
48,55:15
48,57:15
48,58:13
48,59:3
48,60:19
48,62:10
48,63:19
48,65:15
48,66:15
48,67:15
48,68:3
48,69:13
49,36:34
49,37:34
49,38:34
49,39:15
49,40:15
49,41:23
49,42:15
49,43:15
49,44:5
49,45:5
49,46:5
49,47:34
49,51:15
49,52:15
49,53:15
49,56:15
49,57:30
49,58:28
49,59:12
49,60:34
49,61:15
49,62:5
49,63:34
49,64:15
49,68:12
49,69:28
49,70:15
50,51:15
50,52:15
50,53:15
50,56:15
50,57:30
50,58:28
50,59:12
50,60:34
50,61:15
50,62:5
50,63:34
50,64:15
50,68:12
50,69:28
50,70:15
51,36:19
51,37:19
51,38:19
51,41:8
51,44:10
51,45:10
51,46:10
51,47:19
51,49:15
51,50:15
51,57:15
51,58:13
51,59:3
51,60:19
51,62:10
51,63:19
51,65:15
51,66:15
51,67:15
51,68:3
51,69:13
52,36:19
52,37:19
52,38:19
52,41:8
52,44:10
52,45:10
52,46:10
52,47:19
52,49:15
52,50:15
52,54:15
52,57:15
52,58:13
52,59:3
52,60:19
52,62:10
52,63:19
52,65:15
52,66:15
52,67:15
52,68:3
52,69:13
53,36:19
53,37:19
53,38:19
53,41:8
53,44:10
53,45:10
53,46:10
53,47:19
53,49:15
53,50:15
53,54:15
53,57:15
53,58:13
53,59:3
53,60:19
53,62:10
53,63:19
53,65:15
53,66:15
53,67:15
53,68:3
53,69:13
54,36:34
54,37:34
54,38:34
54,39:15
54,40:15
54,41:23
54,42:15
54,43:15
54,44:5
54,45:5
54,46:5
54,47:34
54,48:15
54,56:15
54,57:30
54,58:28
54,59:12
54,60:34
54,61:15
54,62:5
54,63:34
54,64:15
54,68:12
54,69:28
54,70:15
55,36:34
55,37:34
55,38:34
55,39:15
55,40:15
55,41:23
55,42:15
55,43:15
55,44:5
55,45:5
55,46:5
55,47:34
55,48:15
55,56:15
55,57:30
55,58:28
55,59:12
55,60:34
55,61:15
55,62:5
55,63:34
55,64:15
55,68:12
55,69:28
55,70:15
56,36:19
56,37:19
56,38:19
56,41:8
56,44:10
56,45:10
56,46:10
56,47:19
56,49:15
56,50:15
56,54:15
56,55:15
56,57:15
56,58:13
56,59:3
56,60:19
56,62:10
56,63:19
56,65:15
56,66:15
56,67:15
56,68:3
56,69:13
57,1:7
57,2:7
57,3:7
57,4:7
57,5:7
57,6:13
57,7:15
57,8:15
57,9:13
57,10:13
57,12:2
57,13:2
57,14:2
57,23:18
57,24:7
57,25:8
57,26:8
57,27:8
57,28:25
57,29:25
57,30:18
57,31:8
57,32:8
57,33:18
57,34:18
57,35:25
57,36:4
57,37:4
57,38:4
57,39:15
57,40:15
57,41:7
57,42:15
57,43:15
57,44:25
57,45:25
57,46:25
57,47:4
57,48:15
57,49:30
57,50:30
57,51:15
57,52:15
57,53:15
57,54:30
57,55:30
57,56:15
57,58:2
57,61:15
57,62:25
57,63:4
57,64:15
57,65:30
57,66:30
57,67:30
57,68:18
57,69:2
57,70:15
58,1:5
58,2:5
58,3:5
58,4:5
58,5:5
58,6:15
58,7:13
58,8:13
58,9:15
58,10:15
58,11:2
58,20:2
58,21:2
58,22:2
58,23:16
58,24:5
58,25:6
58,26:6
58,27:6
58,28:23
58,29:23
58,30:16
58,31:6
58,32:6
58,33:16
58,34:16
58,35:23
58,36:6
58,37:6
58,38:6
58,39:13
58,40:13
58,41:5
58,42:13
58,43:13
58,44:23
58,45:23
58,46:23
58,47:6
58,48:13
58,49:28
58,50:28
58,51:13
58,52:13
58,53:13
58,54:28
58,55:28
58,56:13
58,59:16
58,61:13
58,62:23
58,63:6
58,64:13
58,65:28
58,66:28
58,67:28
58,68:16
58,70:13
59,1:11
59,2:11
59,3:11
59,4:11
59,5:11
59,6:31
59,7:3
59,8:3
59,9:31
59,10:31
59,11:18
59,12:16
59,13:16
59,14:16
59,20:18
59,21:18
59,22:18
59,24:11
59,25:10
59,26:10
59,27:10
59,28:7
59,29:7
59,31:10
59,32:10
59,35:7
59,36:22
59,37:22
59,38:22
59,39:3
59,40:3
59,41:11
59,42:3
59,43:3
59,44:7
59,45:7
59,46:7
59,47:22
59,48:3
59,49:12
59,50:12
59,51:3
59,52:3
59,53:3
59,54:12
59,55:12
59,56:3
59,60:22
59,61:3
59,62:7
59,63:22
59,64:3
59,65:12
59,66:12
59,67:12
59,69:16
59,70:3
60,39:19
60,40:19
60,41:11
60,42:19
60,43:19
60,44:29
60,45:29
60,46:29
60,48:19
60,49:34
60,50:34
60,51:19
60,52:19
60,53:19
60,54:34
60,55:34
60,56:19
60,61:19
60,62:29
60,64:19
60,65:34
60,66:34
60,67:34
60,68:22
60,69:6
60,70:19
61,36:19
61,37:19
61,38:19
61,41:8
61,44:10
61,45:10
61,46:10
61,47:19
61,49:15
61,50:15
61,54:15
61,55:15
61,57:15
61,58:13
61,59:3
61,60:19
61,62:10
61,63:19
61,65:15
61,66:15
61,67:15
61,68:3
61,69:13
62,36:29
62,37:29
62,38:29
62,39:10
62,40:10
62,41:18
62,42:10
62,43:10
62,47:29
62,48:10
62,49:5
62,50:5
62,51:10
62,52:10
62,53:10
62,54:5
62,55:5
62,56:10
62,57:25
62,58:23
62,59:7
62,60:29
62,61:10
62,63:29
62,68:7
62,69:23
62,70:10
63,39:19
63,40:19
63,41:11
63,42:19
63,43:19
63,44:29
63,45:29
63,46:29
63,48:19
63,49:34
63,50:34
63,51:19
63,52:19
63,53:19
63,54:34
63,55:34
63,56:19
63,57:4
63,58:6
63,59:22
63,61:19
63,64:19
63,68:22
63,69:6
63,70:19
64,36:19
64,37:19
64,38:19
64,41:8
64,44:10
64,45:10
64,46:10
64,47:19
64,49:15
64,50:15
64,54:15
64,55:15
64,57:15
64,58:13
64,59:3
64,60:19
64,65:15
64,66:15
64,67:15
64,68:3
64,69:13
65,36:34
65,37:34
65,38:34
65,39:15
65,40:15
65,41:23
65,42:15
65,43:15
65,44:5
65,45:5
65,46:5
65,47:34
65,48:15
65,51:15
65,52:15
65,53:15
65,56:15
65,57:30
65,58:28
65,59:12
65,60:34
65,68:12
65,69:28
65,70:15
66,36:34
66,37:34
66,38:34
66,39:15
66,40:15
66,41:23
66,42:15
66,43:15
66,44:5
66,45:5
66,46:5
66,47:34
66,48:15
66,51:15
66,52:15
66,53:15
66,56:15
66,57:30
66,58:28
66,59:12
66,60:34
66,61:15
66,68:12
66,69:28
66,70:15
67,36:34
67,37:34
67,38:34
67,39:15
67,40:15
67,41:23
67,42:15
67,43:15
67,44:5
67,45:5
67,46:5
67,47:34
67,48:15
67,51:15
67,52:15
67,53:15
67,56:15
67,57:30
67,58:28
67,59:12
67,60:34
67,61:15
67,68:12
67,69:28
67,70:15
68,4:11
68,5:11
68,6:31
68,7:3
68,8:3
68,9:31
68,10:31
68,11:18
68,12:16
68,13:16
68,14:16
68,15:11
68,16:31
68,17:18
68,18:3
68,19:18
68,20:18
68,21:18
68,22:18
68,24:11
68,25:10
68,26:10
68,27:10
68,28:7
68,29:7
68,31:10
68,32:10
68,35:7
68,36:22
68,37:22
68,38:22
68,39:3
68,40:3
68,41:11
68,42:3
68,43:3
68,44:7
68,45:7
68,46:7
68,47:22
68,48:3
68,49:12
68,50:12
68,51:3
68,52:3
68,53:3
68,54:12
68,55:12
68,56:3
68,57:18
68,58:16
68,60:22
68,61:3
68,62:7
68,63:22
68,64:3
68,65:12
68,66:12
68,67:12
68,69:16
68,70:3
69,2:5
69,3:5
69,4:5
69,5:5
69,6:15
69,7:13
69,8:13
69,9:15
69,10:15
69,11:2
69,15:5
69,16:15
69,17:2
69,18:13
69,19:2
69,20:2
69,21:2
69,22:2
69,23:16
69,24:5
69,25:6
69,26:6
69,27:6
69,28:23
69,29:23
69,30:16
69,31:6
69,32:6
69,33:16
69,34:16
69,35:23
69,36:6
69,37:6
69,38:6
69,39:13
69,40:13
69,41:5
69,42:13
69,43:13
69,44:23
69,45:23
69,46:23
69,47:6
69,48:13
69,49:28
69,50:28
69,51:13
69,52:13
69,53:13
69,54:28
69,55:28
69,56:13
69,57:2
69,59:16
69,60:6
69,61:13
69,62:23
69,63:6
69,64:13
69,65:28
69,66:28
69,67:28
69,68:16
69,70:13
70,2:8
70,3:8
70,4:8
70,5:8
70,6:28
70,9:28
70,10:28
70,11:15
70,12:13
70,13:13
70,14:13
70,15:8
70,16:28
70,17:15
70,19:15
70,20:15
70,21:15
70,22:15
70,23:3
70,24:8
70,25:7
70,26:7
70,27:7
70,28:10
70,29:10
70,30:3
70,31:7
70,32:7
70,33:3
70,34:3
70,35:10
70,36:19
70,37:19
70,38:19
70,41:8
70,44:10
70,45:10
70,46:10
70,47:19
70,49:15
70,50:15
70,54:15
70,55:15
70,57:15
70,58:13
70,59:3
70,60:19
70,62:10
70,63:19
70,65:15
70,66:15
70,67:15
70,68:3
70,69:13

<setup times backward>
1,18:8
1,30:11
1,59:11
2,18:8
2,30:11
2,59:11
2,70:8
3,18:8
3,30:11
3,59:11
3,70:8
4,18:8
4,30:11
4,59:11
4,68:11
4,70:8
5,7:8
5,18:8
5,59:11
5,68:11
5,70:8
6,1:20
6,2:20
6,3:20
6,4:20
6,5:20
6,7:28
6,11:13
6,15:20
6,17:13
6,18:28
6,19:13
6,20:13
6,21:13
6,22:13
6,24:20
6,30:31
6,41:20
6,57:13
6,58:15
6,59:31
6,68:31
6,69:15
6,70:28
7,30:3
7,59:3
7,68:3
8,30:3
8,59:3
8,68:3
9,1:20
9,2:20
9,3:20
9,4:20
9,5:20
9,7:28
9,8:28
9,15:20
9,17:13
9,18:28
9,19:13
9,20:13
9,21:13
9,22:13
9,24:20
9,30:31
9,41:20
9,57:13
9,58:15
9,59:31
9,68:31
9,69:15
9,70:28
10,1:20
10,2:20
10,3:20
10,4:20
10,5:20
10,7:28
10,8:28
10,15:20
10,17:13
10,18:28
10,19:13
10,20:13
10,21:13
10,22:13
10,24:20
10,30:31
10,41:20
10,57:13
10,58:15
10,59:31
10,68:31
10,69:15
10,70:28
11,1:7
11,2:7
11,3:7
11,4:7
11,5:7
11,7:15
11,8:15
11,15:7
11,18:15
11,24:7
11,30:18
11,41:7
11,58:2
11,59:18
11,68:18
11,69:2
11,70:15
12,1:5
12,2:5
12,3:5
12,4:5
12,5:5
12,7:13
12,8:13
12,15:5
12,18:13
12,24:5
12,30:16
12,41:5
12,59:16
12,68:16
12,70:13
13,1:5
13,2:5
13,3:5
13,4:5
13,5:5
13,7:13
13,8:13
13,15:5
13,18:13
13,24:5
13,30:16
13,41:5
13,59:16
13,68:16
13,70:13
14,1:5
14,2:5
14,3:5
14,4:5
14,5:5
14,7:13
14,8:13
14,15:5
14,18:13
14,24:5
14,30:16
14,41:5
14,59:16
14,68:16
14,70:13
15,7:8
15,8:8
15,30:11
15,68:11
15,70:8
16,1:20
16,2:20
16,3:20
16,4:20
16,5:20
16,7:28
16,8:28
16,11:13
16,12:15
16,13:15
16,14:15
16,15:20
16,24:20
16,30:31
16,41:20
16,68:31
16,69:15
16,70:28
17,1:7
17,2:7
17,3:7
17,4:7
17,5:7
17,7:15
17,8:15
17,12:2
17,13:2
17,14:2
17,15:7
17,18:15
17,24:7
17,30:18
17,41:7
17,68:18
17,69:2
17,70:15
18,30:3
18,68:3
19,1:7
19,2:7
19,3:7
19,4:7
19,5:7
19,7:15
19,8:15
19,12:2
19,13:2
19,14:2
19,15:7
19,18:15
19,24:7
19,30:18
19,41:7
19,68:18
19,69:2
19,70:15
20,1:7
20,2:7
20,3:7
20,4:7
20,5:7
20,7:15
20,8:15
20,12:2
20,13:2
20,14:2
20,15:7
20,18:15
20,24:7
20,30:18
20,41:7
20,58:2
20,59:18
20,68:18
20,69:2
20,70:15
21,1:7
21,2:7
21,3:7
21,4:7
21,5:7
21,7:15
21,8:15
21,12:2
21,13:2
21,14:2
21,15:7
21,18:15
21,24:7
21,30:18
21,41:7
21,58:2
21,59:18
21,68:18
21,69:2
21,70:15
22,1:7
22,2:7
22,3:7
22,4:7
22,5:7
22,7:15
22,8:15
22,12:2
22,13:2
22,14:2
22,15:7
22,18:15
22,24:7
22,30:18
22,41:7
22,58:2
22,59:18
22,68:18
22,69:2
22,70:15
24,7:8
24,8:8
24,18:8
24,23:11
24,30:11
24,31:1
24,32:1
24,33:11
24,34:11
24,59:11
24,68:11
24,70:8
25,7:7
25,8:7
25,18:7
25,23:10
25,30:10
25,33:10
25,34:10
25,59:10
25,68:10
25,70:7
26,7:7
26,8:7
26,18:7
26,23:10
26,28:17
26,29:17
26,30:10
26,33:10
26,34:10
26,59:10
26,68:10
26,70:7
27,7:7
27,8:7
27,18:7
27,23:10
27,28:17
27,29:17
27,30:10
27,33:10
27,34:10
27,59:10
27,68:10
27,70:7
30,28:7
30,29:7
31,7:7
31,8:7
31,18:7
31,23:10
31,28:17
31,29:17
31,30:10
31,33:10
31,34:10
31,59:10
31,68:10
31,70:7
32,7:7
32,8:7
32,18:7
32,23:10
32,28:17
32,29:17
32,30:10
32,33:10
32,34:10
32,59:10
32,68:10
32,70:7
33,28:7
33,29:7
34,28:7
34,29:7
36,1:11
36,2:11
36,3:11
36,4:11
36,5:11
36,7:19
36,8:19
36,11:4
36,12:6
36,13:6
36,14:6
36,15:11
36,17:4
36,18:19
36,19:4
36,20:4
36,21:4
36,22:4
36,23:22
36,24:11
36,25:12
36,26:12
36,27:12
36,28:29
36,29:29
36,30:22
36,31:12
36,32:12
36,33:22
36,34:22
36,35:29
36,41:11
36,44:29
36,45:29
36,46:29
36,48:19
36,49:34
36,51:19
36,52:19
36,53:19
36,54:34
36,55:34
36,56:19
36,57:4
36,58:6
36,59:22
36,61:19
36,62:29
36,64:19
36,65:34
36,66:34
36,67:34
36,68:22
36,69:6
36,70:19
37,1:11
37,2:11
37,3:11
37,4:11
37,5:11
37,7:19
37,8:19
37,11:4
37,12:6
37,13:6
37,14:6
37,15:11
37,17:4
37,18:19
37,19:4
37,20:4
37,21:4
37,22:4
37,23:22
37,24:11
37,25:12
37,26:12
37,27:12
37,28:29
37,29:29
37,30:22
37,31:12
37,32:12
37,33:22
37,34:22
37,35:29
37,41:11
37,44:29
37,45:29
37,46:29
37,48:19
37,49:34
37,51:19
37,52:19
37,53:19
37,54:34
37,55:34
37,56:19
37,57:4
37,58:6
37,59:22
37,61:19
37,62:29
37,64:19
37,65:34
37,66:34
37,67:34
37,68:22
37,69:6
37,70:19
38,1:11
38,2:11
38,3:11
38,4:11
38,5:11
38,7:19
38,8:19
38,11:4
38,12:6
38,13:6
38,14:6
38,15:11
38,17:4
38,18:19
38,19:4
38,20:4
38,21:4
38,22:4
38,23:22
38,24:11
38,25:12
38,26:12
38,27:12
38,28:29
38,29:29
38,30:22
38,31:12
38,32:12
38,33:22
38,34:22
38,35:29
38,41:11
38,44:29
38,45:29
38,46:29
38,48:19
38,49:34
38,51:19
38,52:19
38,53:19
38,54:34
38,55:34
38,56:19
38,57:4
38,58:6
38,59:22
38,61:19
38,62:29
38,64:19
38,65:34
38,66:34
38,67:34
38,68:22
38,69:6
38,70:19
39,23:3
39,28:10
39,29:10
39,30:3
39,33:3
39,34:3
39,35:10
39,44:10
39,45:10
39,46:10
39,49:15
39,54:15
39,55:15
39,59:3
39,62:10
39,65:15
39,66:15
39,67:15
39,68:3
40,23:3
40,28:10
40,29:10
40,30:3
40,33:3
40,34:3
40,35:10
40,44:10
40,45:10
40,46:10
40,49:15
40,54:15
40,55:15
40,59:3
40,62:10
40,65:15
40,66:15
40,67:15
40,68:3
41,7:8
41,8:8
41,18:8
41,23:11
41,25:1
41,26:1
41,27:1
41,28:18
41,29:18
41,30:11
41,31:1
41,32:1
41,33:11
41,34:11
41,35:18
41,39:8
41,40:8
41,44:18
41,45:18
41,46:18
41,48:8
41,49:23
41,51:8
41,52:8
41,53:8
41,54:23
41,55:23
41,56:8
41,59:11
41,61:8
41,62:18
41,64:8
41,65:23
41,66:23
41,67:23
41,68:11
41,70:8
42,23:3
42,28:10
42,29:10
42,30:3
42,33:3
42,34:3
42,35:10
42,44:10
42,45:10
42,46:10
42,49:15
42,54:15
42,55:15
42,59:3
42,62:10
42,65:15
42,66:15
42,67:15
42,68:3
43,23:3
43,28:10
43,29:10
43,30:3
43,33:3
43,34:3
43,35:10
43,44:10
43,45:10
43,46:10
43,49:15
43,54:15
43,55:15
43,59:3
43,62:10
43,65:15
43,66:15
43,67:15
43,68:3
44,49:5
44,54:5
44,55:5
44,65:5
44,66:5
44,67:5
45,49:5
45,54:5
45,55:5
45,65:5
45,66:5
45,67:5
46,49:5
46,54:5
46,55:5
46,65:5
46,66:5
46,67:5
47,1:11
47,2:11
47,3:11
47,4:11
47,5:11
47,7:19
47,8:19
47,11:4
47,12:6
47,13:6
47,14:6
47,15:11
47,17:4
47,18:19
47,19:4
47,20:4
47,21:4
47,22:4
47,23:22
47,24:11
47,25:12
47,26:12
47,27:12
47,28:29
47,29:29
47,30:22
47,31:12
47,32:12
47,33:22
47,34:22
47,35:29
47,39:19
47,40:19
47,41:11
47,42:19
47,43:19
47,44:29
47,45:29
47,46:29
47,48:19
47,49:34
47,51:19
47,52:19
47,53:19
47,54:34
47,55:34
47,56:19
47,57:4
47,58:6
47,59:22
47,61:19
47,62:29
47,64:19
47,65:34
47,66:34
47,67:34
47,68:22
47,69:6
47,70:19
48,23:3
48,28:10
48,29:10
48,30:3
48,33:3
48,34:3
48,35:10
48,44:10
48,45:10
48,46:10
48,54:15
48,55:15
48,59:3
48,62:10
48,65:15
48,66:15
48,67:15
48,68:3
51,23:3
51,28:10
51,29:10
51,30:3
51,33:3
51,34:3
51,35:10
51,44:10
51,45:10
51,46:10
51,49:15
51,50:15
51,59:3
51,62:10
51,65:15
51,66:15
51,67:15
51,68:3
52,23:3
52,28:10
52,29:10
52,30:3
52,33:3
52,34:3
52,35:10
52,44:10
52,45:10
52,46:10
52,49:15
52,50:15
52,59:3
52,62:10
52,65:15
52,66:15
52,67:15
52,68:3
53,23:3
53,28:10
53,29:10
53,30:3
53,33:3
53,34:3
53,35:10
53,44:10
53,45:10
53,46:10
53,49:15
53,50:15
53,59:3
53,62:10
53,65:15
53,66:15
53,67:15
53,68:3
56,23:3
56,28:10
56,29:10
56,30:3
56,33:3
56,34:3
56,35:10
56,44:10
56,45:10
56,46:10
56,49:15
56,50:15
56,54:15
56,55:15
56,59:3
56,62:10
56,65:15
56,66:15
56,67:15
56,68:3
57,1:7
57,2:7
57,3:7
57,4:7
57,5:7
57,7:15
57,8:15
57,12:2
57,13:2
57,14:2
57,15:7
57,18:15
57,23:18
57,24:7
57,25:8
57,26:8
57,27:8
57,28:25
57,29:25
57,30:18
57,31:8
57,32:8
57,33:18
57,34:18
57,35:25
57,39:15
57,40:15
57,41:7
57,42:15
57,43:15
57,44:25
57,45:25
57,46:25
57,48:15
57,49:30
57,50:30
57,51:15
57,52:15
57,53:15
57,54:30
57,55:30
57,56:15
57,61:15
57,62:25
57,64:15
57,65:30
57,66:30
57,67:30
57,68:18
57,69:2
57,70:15
58,1:5
58,2:5
58,3:5
58,4:5
58,5:5
58,7:13
58,8:13
58,15:5
58,18:13
58,23:16
58,24:5
58,25:6
58,26:6
58,27:6
58,28:23
58,29:23
58,30:16
58,31:6
58,32:6
58,33:16
58,34:16
58,35:23
58,39:13
58,40:13
58,41:5
58,42:13
58,43:13
58,44:23
58,45:23
58,46:23
58,48:13
58,49:28
58,50:28
58,51:13
58,52:13
58,53:13
58,54:28
58,55:28
58,56:13
58,61:13
58,62:23
58,64:13
58,65:28
58,66:28
58,67:28
58,68:16
58,70:13
59,28:7
59,29:7
59,35:7
59,44:7
59,45:7
59,46:7
59,49:12
59,50:12
59,54:12
59,55:12
59,62:7
59,65:12
59,66:12
59,67:12
60,1:11
60,2:11
60,3:11
60,4:11
60,5:11
60,7:19
60,8:19
60,11:4
60,12:6
60,13:6
60,14:6
60,15:11
60,17:4
60,18:19
60,19:4
60,20:4
60,21:4
60,22:4
60,23:22
60,24:11
60,25:12
60,26:12
60,27:12
60,28:29
60,29:29
60,30:22
60,31:12
60,32:12
60,33:22
60,34:22
60,35:29
60,39:19
60,40:19
60,41:11
60,42:19
60,43:19
60,44:29
60,45:29
60,46:29
60,48:19
60,49:34
60,50:34
60,51:19
60,52:19
60,53:19
60,54:34
60,55:34
60,56:19
60,57:4
60,58:6
60,59:22
60,61:19
60,62:29
60,64:19
60,65:34
60,66:34
60,67:34
60,68:22
60,69:6
60,70:19
61,23:3
61,28:10
61,29:10
61,30:3
61,33:3
61,34:3
61,35:10
61,44:10
61,45:10
61,46:10
61,49:15
61,50:15
61,54:15
61,55:15
61,59:3
61,62:10
61,66:15
61,67:15
61,68:3
62,49:5
62,50:5
62,54:5
62,55:5
63,1:11
63,2:11
63,3:11
63,4:11
63,5:11
63,7:19
63,8:19
63,11:4
63,12:6
63,13:6
63,14:6
63,15:11
63,17:4
63,18:19
63,19:4
63,20:4
63,21:4
63,22:4
63,23:22
63,24:11
63,25:12
63,26:12
63,27:12
63,28:29
63,29:29
63,30:22
63,31:12
63,32:12
63,33:22
63,34:22
63,35:29
63,39:19
63,40:19
63,41:11
63,42:19
63,43:19
63,44:29
63,45:29
63,46:29
63,48:19
63,49:34
63,50:34
63,51:19
63,52:19
63,53:19
63,54:34
63,55:34
63,56:19
63,57:4
63,58:6
63,59:22
63,61:19
63,62:29
63,68:22
63,69:6
63,70:19
64,23:3
64,28:10
64,29:10
64,30:3
64,33:3
64,34:3
64,35:10
64,44:10
64,45:10
64,46:10
64,49:15
64,50:15
64,54:15
64,55:15
64,59:3
64,62:10
64,68:3
68,28:7
68,29:7
68,35:7
68,44:7
68,45:7
68,46:7
68,49:12
68,50:12
68,54:12
68,55:12
68,62:7
68,65:12
68,66:12
68,67:12
69,1:5
69,2:5
69,3:5
69,4:5
69,5:5
69,7:13
69,8:13
69,15:5
69,18:13
69,23:16
69,24:5
69,25:6
69,26:6
69,27:6
69,28:23
69,29:23
69,30:16
69,31:6
69,32:6
69,33:16
69,34:16
69,35:23
69,39:13
69,40:13
69,41:5
69,42:13
69,43:13
69,44:23
69,45:23
69,46:23
69,48:13
69,49:28
69,50:28
69,51:13
69,52:13
69,53:13
69,54:28
69,55:28
69,56:13
69,59:16
69,61:13
69,62:23
69,64:13
69,65:28
69,66:28
69,67:28
69,68:16
69,70:13
70,23:3
70,28:10
70,29:10
70,30:3
70,33:3
70,34:3
70,35:10
70,44:10
70,45:10
70,46:10
70,49:15
70,50:15
70,54:15
70,55:15
70,59:3
70,62:10
70,65:15
70,66:15
70,67:15
70,68:3

<end>

<optimal SALBP-1 value>
11


<rand seed>
467321153

